% File represents an instance of a Composite Structure problem to be solved by a CP framework
% Created on 2025-03-26 10:41:33.680
T = 50;
n = 25;
m = 40;
edges = [(1, 2),
(6, 7),
(11, 12),
(16, 17),
(21, 22),
(2, 3),
(7, 8),
(12, 13),
(17, 18),
(23, 22),
(3, 4),
(8, 9),
(13, 14),
(18, 19),
(23, 24),
(4, 5),
(9, 10),
(14, 15),
(19, 20),
(24, 25),
(6, 1),
(6, 11),
(11, 16),
(16, 21),
(7, 2),
(7, 12),
(12, 17),
(17, 22),
(8, 3),
(8, 13),
(18, 13),
(18, 23),
(9, 4),
(9, 14),
(19, 14),
(19, 24),
(10, 5),
(10, 15),
(20, 15),
(20, 25)];
counts = [|6, 18, 6, 14,
|6, 16, 6, 10,
|6, 12, 6, 8,
|4, 12, 4, 8,
|4, 10, 4, 4,
|8, 20, 8, 14,
|8, 18, 8, 10,
|8, 14, 8, 8,
|6, 12, 6, 8,
|6, 12, 6, 4,
|6, 18, 6, 14,
|6, 18, 6, 8,
|6, 14, 6, 6,
|6, 10, 6, 6,
|4, 10, 4, 4,
|6, 18, 6, 8,
|6, 16, 6, 8,
|6, 16, 6, 6,
|6, 12, 6, 6,
|4, 12, 4, 6,
|6, 12, 6, 8,
|6, 12, 6, 6,
|6, 14, 6, 6,
|6, 12, 6, 4,
|4, 12, 4, 4|];
